num_courses = 6;
num_classes = 30;
num_days = 6;
num_common_courses = 3;
total_courses = 177;
data = array2d(1..num_classes, 1..num_courses,
[
   1, 4, 5, 6, 7, 8, 
   9, 10, 11, 12, 13, 14, 
   3, 15, 16, 17, 18, 19, 
   20, 21, 22, 23, 24, 25, 
   1, 26, 27, 28, 29, 30, 
   3, 31, 32, 33, 34, 35, 
   36, 37, 38, 39, 40, 41, 
   42, 43, 44, 45, 46, 47, 
   48, 49, 50, 51, 52, 53, 
   54, 55, 56, 57, 58, 59, 
   60, 61, 62, 63, 64, 65, 
   66, 67, 68, 69, 70, 71, 
   2, 72, 73, 74, 75, 76, 
   77, 78, 79, 80, 81, 82, 
   83, 84, 85, 86, 87, 88, 
   89, 90, 91, 92, 93, 94, 
   2, 95, 96, 97, 98, 99, 
   100, 101, 102, 103, 104, 105, 
   106, 107, 108, 109, 110, 111, 
   112, 113, 114, 115, 116, 117, 
   118, 119, 120, 121, 122, 123, 
   124, 125, 126, 127, 128, 129, 
   130, 131, 132, 133, 134, 135, 
   136, 137, 138, 139, 140, 141, 
   142, 143, 144, 145, 146, 147, 
   148, 149, 150, 151, 152, 153, 
   154, 155, 156, 157, 158, 159, 
   160, 161, 162, 163, 164, 165, 
   166, 167, 168, 169, 170, 171, 
   172, 173, 174, 175, 176, 177, 
]);


common_courses_count = array2d(1..num_common_courses, 1..2,
[
   1, 2,
   2, 2,
   3, 2,
]);


preferences = array3d(1..num_classes, 1..num_courses, 1..3,
[
% Class: 1
(day: 5, value: 3, course_id: 1), (day: 2, value: 2, course_id: 1), (day: 1, value: 1, course_id: 1), 
(day: 1, value: 0, course_id: 4), (day: 1, value: 0, course_id: 4), (day: 1, value: 0, course_id: 4), 
(day: 1, value: 0, course_id: 5), (day: 1, value: 0, course_id: 5), (day: 1, value: 0, course_id: 5), 
(day: 1, value: 0, course_id: 6), (day: 1, value: 0, course_id: 6), (day: 1, value: 0, course_id: 6), 
(day: 1, value: 0, course_id: 7), (day: 1, value: 0, course_id: 7), (day: 1, value: 0, course_id: 7), 
(day: 1, value: 0, course_id: 8), (day: 1, value: 0, course_id: 8), (day: 1, value: 0, course_id: 8), 

% Class: 2
(day: 1, value: 0, course_id: 9), (day: 1, value: 0, course_id: 9), (day: 1, value: 0, course_id: 9), 
(day: 1, value: 0, course_id: 10), (day: 1, value: 0, course_id: 10), (day: 1, value: 0, course_id: 10), 
(day: 1, value: 0, course_id: 11), (day: 1, value: 0, course_id: 11), (day: 1, value: 0, course_id: 11), 
(day: 1, value: 0, course_id: 12), (day: 1, value: 0, course_id: 12), (day: 1, value: 0, course_id: 12), 
(day: 1, value: 0, course_id: 13), (day: 1, value: 0, course_id: 13), (day: 1, value: 0, course_id: 13), 
(day: 1, value: 0, course_id: 14), (day: 1, value: 0, course_id: 14), (day: 1, value: 0, course_id: 14), 

% Class: 3
(day: 3, value: 3, course_id: 3), (day: 2, value: 2, course_id: 3), (day: 1, value: 1, course_id: 3), 
(day: 1, value: 0, course_id: 15), (day: 1, value: 0, course_id: 15), (day: 1, value: 0, course_id: 15), 
(day: 1, value: 0, course_id: 16), (day: 1, value: 0, course_id: 16), (day: 1, value: 0, course_id: 16), 
(day: 1, value: 0, course_id: 17), (day: 1, value: 0, course_id: 17), (day: 1, value: 0, course_id: 17), 
(day: 1, value: 0, course_id: 18), (day: 1, value: 0, course_id: 18), (day: 1, value: 0, course_id: 18), 
(day: 1, value: 0, course_id: 19), (day: 1, value: 0, course_id: 19), (day: 1, value: 0, course_id: 19), 

% Class: 4
(day: 1, value: 0, course_id: 20), (day: 1, value: 0, course_id: 20), (day: 1, value: 0, course_id: 20), 
(day: 1, value: 0, course_id: 21), (day: 1, value: 0, course_id: 21), (day: 1, value: 0, course_id: 21), 
(day: 1, value: 0, course_id: 22), (day: 1, value: 0, course_id: 22), (day: 1, value: 0, course_id: 22), 
(day: 1, value: 0, course_id: 23), (day: 1, value: 0, course_id: 23), (day: 1, value: 0, course_id: 23), 
(day: 1, value: 0, course_id: 24), (day: 1, value: 0, course_id: 24), (day: 1, value: 0, course_id: 24), 
(day: 1, value: 0, course_id: 25), (day: 1, value: 0, course_id: 25), (day: 1, value: 0, course_id: 25), 

% Class: 5
(day: 1, value: 3, course_id: 1), (day: 5, value: 2, course_id: 1), (day: 6, value: 1, course_id: 1), 
(day: 1, value: 0, course_id: 26), (day: 1, value: 0, course_id: 26), (day: 1, value: 0, course_id: 26), 
(day: 1, value: 0, course_id: 27), (day: 1, value: 0, course_id: 27), (day: 1, value: 0, course_id: 27), 
(day: 1, value: 0, course_id: 28), (day: 1, value: 0, course_id: 28), (day: 1, value: 0, course_id: 28), 
(day: 1, value: 0, course_id: 29), (day: 1, value: 0, course_id: 29), (day: 1, value: 0, course_id: 29), 
(day: 1, value: 0, course_id: 30), (day: 1, value: 0, course_id: 30), (day: 1, value: 0, course_id: 30), 

% Class: 6
(day: 3, value: 3, course_id: 3), (day: 5, value: 2, course_id: 3), (day: 6, value: 1, course_id: 3), 
(day: 1, value: 0, course_id: 31), (day: 1, value: 0, course_id: 31), (day: 1, value: 0, course_id: 31), 
(day: 1, value: 0, course_id: 32), (day: 1, value: 0, course_id: 32), (day: 1, value: 0, course_id: 32), 
(day: 1, value: 0, course_id: 33), (day: 1, value: 0, course_id: 33), (day: 1, value: 0, course_id: 33), 
(day: 1, value: 0, course_id: 34), (day: 1, value: 0, course_id: 34), (day: 1, value: 0, course_id: 34), 
(day: 1, value: 0, course_id: 35), (day: 1, value: 0, course_id: 35), (day: 1, value: 0, course_id: 35), 

% Class: 7
(day: 1, value: 0, course_id: 36), (day: 1, value: 0, course_id: 36), (day: 1, value: 0, course_id: 36), 
(day: 1, value: 0, course_id: 37), (day: 1, value: 0, course_id: 37), (day: 1, value: 0, course_id: 37), 
(day: 1, value: 0, course_id: 38), (day: 1, value: 0, course_id: 38), (day: 1, value: 0, course_id: 38), 
(day: 1, value: 0, course_id: 39), (day: 1, value: 0, course_id: 39), (day: 1, value: 0, course_id: 39), 
(day: 1, value: 0, course_id: 40), (day: 1, value: 0, course_id: 40), (day: 1, value: 0, course_id: 40), 
(day: 1, value: 0, course_id: 41), (day: 1, value: 0, course_id: 41), (day: 1, value: 0, course_id: 41), 

% Class: 8
(day: 1, value: 0, course_id: 42), (day: 1, value: 0, course_id: 42), (day: 1, value: 0, course_id: 42), 
(day: 1, value: 0, course_id: 43), (day: 1, value: 0, course_id: 43), (day: 1, value: 0, course_id: 43), 
(day: 1, value: 0, course_id: 44), (day: 1, value: 0, course_id: 44), (day: 1, value: 0, course_id: 44), 
(day: 1, value: 0, course_id: 45), (day: 1, value: 0, course_id: 45), (day: 1, value: 0, course_id: 45), 
(day: 1, value: 0, course_id: 46), (day: 1, value: 0, course_id: 46), (day: 1, value: 0, course_id: 46), 
(day: 1, value: 0, course_id: 47), (day: 1, value: 0, course_id: 47), (day: 1, value: 0, course_id: 47), 

% Class: 9
(day: 1, value: 0, course_id: 48), (day: 1, value: 0, course_id: 48), (day: 1, value: 0, course_id: 48), 
(day: 1, value: 0, course_id: 49), (day: 1, value: 0, course_id: 49), (day: 1, value: 0, course_id: 49), 
(day: 1, value: 0, course_id: 50), (day: 1, value: 0, course_id: 50), (day: 1, value: 0, course_id: 50), 
(day: 1, value: 0, course_id: 51), (day: 1, value: 0, course_id: 51), (day: 1, value: 0, course_id: 51), 
(day: 1, value: 0, course_id: 52), (day: 1, value: 0, course_id: 52), (day: 1, value: 0, course_id: 52), 
(day: 1, value: 0, course_id: 53), (day: 1, value: 0, course_id: 53), (day: 1, value: 0, course_id: 53), 

% Class: 10
(day: 1, value: 0, course_id: 54), (day: 1, value: 0, course_id: 54), (day: 1, value: 0, course_id: 54), 
(day: 1, value: 0, course_id: 55), (day: 1, value: 0, course_id: 55), (day: 1, value: 0, course_id: 55), 
(day: 1, value: 0, course_id: 56), (day: 1, value: 0, course_id: 56), (day: 1, value: 0, course_id: 56), 
(day: 1, value: 0, course_id: 57), (day: 1, value: 0, course_id: 57), (day: 1, value: 0, course_id: 57), 
(day: 1, value: 0, course_id: 58), (day: 1, value: 0, course_id: 58), (day: 1, value: 0, course_id: 58), 
(day: 1, value: 0, course_id: 59), (day: 1, value: 0, course_id: 59), (day: 1, value: 0, course_id: 59), 

% Class: 11
(day: 1, value: 0, course_id: 60), (day: 1, value: 0, course_id: 60), (day: 1, value: 0, course_id: 60), 
(day: 1, value: 0, course_id: 61), (day: 1, value: 0, course_id: 61), (day: 1, value: 0, course_id: 61), 
(day: 1, value: 0, course_id: 62), (day: 1, value: 0, course_id: 62), (day: 1, value: 0, course_id: 62), 
(day: 1, value: 0, course_id: 63), (day: 1, value: 0, course_id: 63), (day: 1, value: 0, course_id: 63), 
(day: 1, value: 0, course_id: 64), (day: 1, value: 0, course_id: 64), (day: 1, value: 0, course_id: 64), 
(day: 1, value: 0, course_id: 65), (day: 1, value: 0, course_id: 65), (day: 1, value: 0, course_id: 65), 

% Class: 12
(day: 1, value: 0, course_id: 66), (day: 1, value: 0, course_id: 66), (day: 1, value: 0, course_id: 66), 
(day: 1, value: 0, course_id: 67), (day: 1, value: 0, course_id: 67), (day: 1, value: 0, course_id: 67), 
(day: 1, value: 0, course_id: 68), (day: 1, value: 0, course_id: 68), (day: 1, value: 0, course_id: 68), 
(day: 1, value: 0, course_id: 69), (day: 1, value: 0, course_id: 69), (day: 1, value: 0, course_id: 69), 
(day: 1, value: 0, course_id: 70), (day: 1, value: 0, course_id: 70), (day: 1, value: 0, course_id: 70), 
(day: 1, value: 0, course_id: 71), (day: 1, value: 0, course_id: 71), (day: 1, value: 0, course_id: 71), 

% Class: 13
(day: 2, value: 3, course_id: 2), (day: 6, value: 2, course_id: 2), (day: 3, value: 1, course_id: 2), 
(day: 1, value: 0, course_id: 72), (day: 1, value: 0, course_id: 72), (day: 1, value: 0, course_id: 72), 
(day: 1, value: 0, course_id: 73), (day: 1, value: 0, course_id: 73), (day: 1, value: 0, course_id: 73), 
(day: 1, value: 0, course_id: 74), (day: 1, value: 0, course_id: 74), (day: 1, value: 0, course_id: 74), 
(day: 1, value: 0, course_id: 75), (day: 1, value: 0, course_id: 75), (day: 1, value: 0, course_id: 75), 
(day: 1, value: 0, course_id: 76), (day: 1, value: 0, course_id: 76), (day: 1, value: 0, course_id: 76), 

% Class: 14
(day: 1, value: 0, course_id: 77), (day: 1, value: 0, course_id: 77), (day: 1, value: 0, course_id: 77), 
(day: 1, value: 0, course_id: 78), (day: 1, value: 0, course_id: 78), (day: 1, value: 0, course_id: 78), 
(day: 1, value: 0, course_id: 79), (day: 1, value: 0, course_id: 79), (day: 1, value: 0, course_id: 79), 
(day: 1, value: 0, course_id: 80), (day: 1, value: 0, course_id: 80), (day: 1, value: 0, course_id: 80), 
(day: 1, value: 0, course_id: 81), (day: 1, value: 0, course_id: 81), (day: 1, value: 0, course_id: 81), 
(day: 1, value: 0, course_id: 82), (day: 1, value: 0, course_id: 82), (day: 1, value: 0, course_id: 82), 

% Class: 15
(day: 1, value: 0, course_id: 83), (day: 1, value: 0, course_id: 83), (day: 1, value: 0, course_id: 83), 
(day: 1, value: 0, course_id: 84), (day: 1, value: 0, course_id: 84), (day: 1, value: 0, course_id: 84), 
(day: 1, value: 0, course_id: 85), (day: 1, value: 0, course_id: 85), (day: 1, value: 0, course_id: 85), 
(day: 1, value: 0, course_id: 86), (day: 1, value: 0, course_id: 86), (day: 1, value: 0, course_id: 86), 
(day: 1, value: 0, course_id: 87), (day: 1, value: 0, course_id: 87), (day: 1, value: 0, course_id: 87), 
(day: 1, value: 0, course_id: 88), (day: 1, value: 0, course_id: 88), (day: 1, value: 0, course_id: 88), 

% Class: 16
(day: 1, value: 0, course_id: 89), (day: 1, value: 0, course_id: 89), (day: 1, value: 0, course_id: 89), 
(day: 1, value: 0, course_id: 90), (day: 1, value: 0, course_id: 90), (day: 1, value: 0, course_id: 90), 
(day: 1, value: 0, course_id: 91), (day: 1, value: 0, course_id: 91), (day: 1, value: 0, course_id: 91), 
(day: 1, value: 0, course_id: 92), (day: 1, value: 0, course_id: 92), (day: 1, value: 0, course_id: 92), 
(day: 1, value: 0, course_id: 93), (day: 1, value: 0, course_id: 93), (day: 1, value: 0, course_id: 93), 
(day: 1, value: 0, course_id: 94), (day: 1, value: 0, course_id: 94), (day: 1, value: 0, course_id: 94), 

% Class: 17
(day: 3, value: 3, course_id: 2), (day: 2, value: 2, course_id: 2), (day: 1, value: 1, course_id: 2), 
(day: 1, value: 0, course_id: 95), (day: 1, value: 0, course_id: 95), (day: 1, value: 0, course_id: 95), 
(day: 1, value: 0, course_id: 96), (day: 1, value: 0, course_id: 96), (day: 1, value: 0, course_id: 96), 
(day: 1, value: 0, course_id: 97), (day: 1, value: 0, course_id: 97), (day: 1, value: 0, course_id: 97), 
(day: 1, value: 0, course_id: 98), (day: 1, value: 0, course_id: 98), (day: 1, value: 0, course_id: 98), 
(day: 1, value: 0, course_id: 99), (day: 1, value: 0, course_id: 99), (day: 1, value: 0, course_id: 99), 

% Class: 18
(day: 1, value: 0, course_id: 100), (day: 1, value: 0, course_id: 100), (day: 1, value: 0, course_id: 100), 
(day: 1, value: 0, course_id: 101), (day: 1, value: 0, course_id: 101), (day: 1, value: 0, course_id: 101), 
(day: 1, value: 0, course_id: 102), (day: 1, value: 0, course_id: 102), (day: 1, value: 0, course_id: 102), 
(day: 1, value: 0, course_id: 103), (day: 1, value: 0, course_id: 103), (day: 1, value: 0, course_id: 103), 
(day: 1, value: 0, course_id: 104), (day: 1, value: 0, course_id: 104), (day: 1, value: 0, course_id: 104), 
(day: 1, value: 0, course_id: 105), (day: 1, value: 0, course_id: 105), (day: 1, value: 0, course_id: 105), 

% Class: 19
(day: 1, value: 0, course_id: 106), (day: 1, value: 0, course_id: 106), (day: 1, value: 0, course_id: 106), 
(day: 1, value: 0, course_id: 107), (day: 1, value: 0, course_id: 107), (day: 1, value: 0, course_id: 107), 
(day: 1, value: 0, course_id: 108), (day: 1, value: 0, course_id: 108), (day: 1, value: 0, course_id: 108), 
(day: 1, value: 0, course_id: 109), (day: 1, value: 0, course_id: 109), (day: 1, value: 0, course_id: 109), 
(day: 1, value: 0, course_id: 110), (day: 1, value: 0, course_id: 110), (day: 1, value: 0, course_id: 110), 
(day: 1, value: 0, course_id: 111), (day: 1, value: 0, course_id: 111), (day: 1, value: 0, course_id: 111), 

% Class: 20
(day: 1, value: 0, course_id: 112), (day: 1, value: 0, course_id: 112), (day: 1, value: 0, course_id: 112), 
(day: 1, value: 0, course_id: 113), (day: 1, value: 0, course_id: 113), (day: 1, value: 0, course_id: 113), 
(day: 1, value: 0, course_id: 114), (day: 1, value: 0, course_id: 114), (day: 1, value: 0, course_id: 114), 
(day: 1, value: 0, course_id: 115), (day: 1, value: 0, course_id: 115), (day: 1, value: 0, course_id: 115), 
(day: 1, value: 0, course_id: 116), (day: 1, value: 0, course_id: 116), (day: 1, value: 0, course_id: 116), 
(day: 1, value: 0, course_id: 117), (day: 1, value: 0, course_id: 117), (day: 1, value: 0, course_id: 117), 

% Class: 21
(day: 1, value: 0, course_id: 118), (day: 1, value: 0, course_id: 118), (day: 1, value: 0, course_id: 118), 
(day: 1, value: 0, course_id: 119), (day: 1, value: 0, course_id: 119), (day: 1, value: 0, course_id: 119), 
(day: 1, value: 0, course_id: 120), (day: 1, value: 0, course_id: 120), (day: 1, value: 0, course_id: 120), 
(day: 1, value: 0, course_id: 121), (day: 1, value: 0, course_id: 121), (day: 1, value: 0, course_id: 121), 
(day: 1, value: 0, course_id: 122), (day: 1, value: 0, course_id: 122), (day: 1, value: 0, course_id: 122), 
(day: 1, value: 0, course_id: 123), (day: 1, value: 0, course_id: 123), (day: 1, value: 0, course_id: 123), 

% Class: 22
(day: 1, value: 0, course_id: 124), (day: 1, value: 0, course_id: 124), (day: 1, value: 0, course_id: 124), 
(day: 1, value: 0, course_id: 125), (day: 1, value: 0, course_id: 125), (day: 1, value: 0, course_id: 125), 
(day: 1, value: 0, course_id: 126), (day: 1, value: 0, course_id: 126), (day: 1, value: 0, course_id: 126), 
(day: 1, value: 0, course_id: 127), (day: 1, value: 0, course_id: 127), (day: 1, value: 0, course_id: 127), 
(day: 1, value: 0, course_id: 128), (day: 1, value: 0, course_id: 128), (day: 1, value: 0, course_id: 128), 
(day: 1, value: 0, course_id: 129), (day: 1, value: 0, course_id: 129), (day: 1, value: 0, course_id: 129), 

% Class: 23
(day: 1, value: 0, course_id: 130), (day: 1, value: 0, course_id: 130), (day: 1, value: 0, course_id: 130), 
(day: 1, value: 0, course_id: 131), (day: 1, value: 0, course_id: 131), (day: 1, value: 0, course_id: 131), 
(day: 1, value: 0, course_id: 132), (day: 1, value: 0, course_id: 132), (day: 1, value: 0, course_id: 132), 
(day: 1, value: 0, course_id: 133), (day: 1, value: 0, course_id: 133), (day: 1, value: 0, course_id: 133), 
(day: 1, value: 0, course_id: 134), (day: 1, value: 0, course_id: 134), (day: 1, value: 0, course_id: 134), 
(day: 1, value: 0, course_id: 135), (day: 1, value: 0, course_id: 135), (day: 1, value: 0, course_id: 135), 

% Class: 24
(day: 1, value: 0, course_id: 136), (day: 1, value: 0, course_id: 136), (day: 1, value: 0, course_id: 136), 
(day: 1, value: 0, course_id: 137), (day: 1, value: 0, course_id: 137), (day: 1, value: 0, course_id: 137), 
(day: 1, value: 0, course_id: 138), (day: 1, value: 0, course_id: 138), (day: 1, value: 0, course_id: 138), 
(day: 1, value: 0, course_id: 139), (day: 1, value: 0, course_id: 139), (day: 1, value: 0, course_id: 139), 
(day: 1, value: 0, course_id: 140), (day: 1, value: 0, course_id: 140), (day: 1, value: 0, course_id: 140), 
(day: 1, value: 0, course_id: 141), (day: 1, value: 0, course_id: 141), (day: 1, value: 0, course_id: 141), 

% Class: 25
(day: 1, value: 0, course_id: 142), (day: 1, value: 0, course_id: 142), (day: 1, value: 0, course_id: 142), 
(day: 1, value: 0, course_id: 143), (day: 1, value: 0, course_id: 143), (day: 1, value: 0, course_id: 143), 
(day: 1, value: 0, course_id: 144), (day: 1, value: 0, course_id: 144), (day: 1, value: 0, course_id: 144), 
(day: 1, value: 0, course_id: 145), (day: 1, value: 0, course_id: 145), (day: 1, value: 0, course_id: 145), 
(day: 1, value: 0, course_id: 146), (day: 1, value: 0, course_id: 146), (day: 1, value: 0, course_id: 146), 
(day: 1, value: 0, course_id: 147), (day: 1, value: 0, course_id: 147), (day: 1, value: 0, course_id: 147), 

% Class: 26
(day: 1, value: 0, course_id: 148), (day: 1, value: 0, course_id: 148), (day: 1, value: 0, course_id: 148), 
(day: 1, value: 0, course_id: 149), (day: 1, value: 0, course_id: 149), (day: 1, value: 0, course_id: 149), 
(day: 1, value: 0, course_id: 150), (day: 1, value: 0, course_id: 150), (day: 1, value: 0, course_id: 150), 
(day: 1, value: 0, course_id: 151), (day: 1, value: 0, course_id: 151), (day: 1, value: 0, course_id: 151), 
(day: 1, value: 0, course_id: 152), (day: 1, value: 0, course_id: 152), (day: 1, value: 0, course_id: 152), 
(day: 1, value: 0, course_id: 153), (day: 1, value: 0, course_id: 153), (day: 1, value: 0, course_id: 153), 

% Class: 27
(day: 1, value: 0, course_id: 154), (day: 1, value: 0, course_id: 154), (day: 1, value: 0, course_id: 154), 
(day: 1, value: 0, course_id: 155), (day: 1, value: 0, course_id: 155), (day: 1, value: 0, course_id: 155), 
(day: 1, value: 0, course_id: 156), (day: 1, value: 0, course_id: 156), (day: 1, value: 0, course_id: 156), 
(day: 1, value: 0, course_id: 157), (day: 1, value: 0, course_id: 157), (day: 1, value: 0, course_id: 157), 
(day: 1, value: 0, course_id: 158), (day: 1, value: 0, course_id: 158), (day: 1, value: 0, course_id: 158), 
(day: 1, value: 0, course_id: 159), (day: 1, value: 0, course_id: 159), (day: 1, value: 0, course_id: 159), 

% Class: 28
(day: 1, value: 0, course_id: 160), (day: 1, value: 0, course_id: 160), (day: 1, value: 0, course_id: 160), 
(day: 1, value: 0, course_id: 161), (day: 1, value: 0, course_id: 161), (day: 1, value: 0, course_id: 161), 
(day: 1, value: 0, course_id: 162), (day: 1, value: 0, course_id: 162), (day: 1, value: 0, course_id: 162), 
(day: 1, value: 0, course_id: 163), (day: 1, value: 0, course_id: 163), (day: 1, value: 0, course_id: 163), 
(day: 1, value: 0, course_id: 164), (day: 1, value: 0, course_id: 164), (day: 1, value: 0, course_id: 164), 
(day: 1, value: 0, course_id: 165), (day: 1, value: 0, course_id: 165), (day: 1, value: 0, course_id: 165), 

% Class: 29
(day: 1, value: 0, course_id: 166), (day: 1, value: 0, course_id: 166), (day: 1, value: 0, course_id: 166), 
(day: 1, value: 0, course_id: 167), (day: 1, value: 0, course_id: 167), (day: 1, value: 0, course_id: 167), 
(day: 1, value: 0, course_id: 168), (day: 1, value: 0, course_id: 168), (day: 1, value: 0, course_id: 168), 
(day: 1, value: 0, course_id: 169), (day: 1, value: 0, course_id: 169), (day: 1, value: 0, course_id: 169), 
(day: 1, value: 0, course_id: 170), (day: 1, value: 0, course_id: 170), (day: 1, value: 0, course_id: 170), 
(day: 1, value: 0, course_id: 171), (day: 1, value: 0, course_id: 171), (day: 1, value: 0, course_id: 171), 

% Class: 30
(day: 1, value: 0, course_id: 172), (day: 1, value: 0, course_id: 172), (day: 1, value: 0, course_id: 172), 
(day: 1, value: 0, course_id: 173), (day: 1, value: 0, course_id: 173), (day: 1, value: 0, course_id: 173), 
(day: 1, value: 0, course_id: 174), (day: 1, value: 0, course_id: 174), (day: 1, value: 0, course_id: 174), 
(day: 1, value: 0, course_id: 175), (day: 1, value: 0, course_id: 175), (day: 1, value: 0, course_id: 175), 
(day: 1, value: 0, course_id: 176), (day: 1, value: 0, course_id: 176), (day: 1, value: 0, course_id: 176), 
(day: 1, value: 0, course_id: 177), (day: 1, value: 0, course_id: 177), (day: 1, value: 0, course_id: 177), 

]);